NAME: cum70.tsp
TYPE: TSP
COMMENT: User-generated TSP file
DIMENSION: 70
EDGE_WEIGHT_TYPE: EUC_2D
NODE_COORD_SECTION
1 53.0 82.0
2 20.0 8.0
3 10.0 86.0
4 74.0 6.0
5 90.0 22.0
6 68.0 43.0
7 33.0 37.0
8 64.0 86.0
9 43.0 80.0
10 50.0 92.0
11 50.0 27.0
12 56.0 93.0
13 55.0 77.0
14 91.0 27.0
15 55.0 64.0
16 18.0 38.0
17 35.0 87.0
18 97.0 45.0
19 61.0 67.0
20 14.0 49.0
21 74.0 7.0
22 49.0 68.0
23 99.0 95.0
24 5.0 88.0
25 8.0 92.0
26 60.0 82.0
27 67.0 21.0
28 8.0 6.0
29 15.0 14.0
30 40.0 60.0
31 14.0 89.0
32 21.0 76.0
33 56.0 39.0
34 39.0 25.0
35 13.0 64.0
36 91.0 99.0
37 48.0 41.0
38 18.0 52.0
39 60.0 25.0
40 39.0 97.0
41 3.0 3.0
42 20.0 85.0
43 20.0 16.0
44 95.0 51.0
45 26.0 6.0
46 9.0 6.0
47 96.0 84.0
48 57.0 11.0
49 27.0 43.0
50 57.0 68.0
51 83.0 100.0
52 11.0 50.0
53 88.0 71.0
54 75.0 8.0
55 29.0 100.0
56 18.0 21.0
57 33.0 88.0
58 54.0 50.0
59 25.0 34.0
60 46.0 21.0
61 41.0 81.0
62 98.0 48.0
63 53.0 49.0
64 95.0 94.0
65 82.0 38.0
66 37.0 30.0
67 47.0 35.0
68 50.0 72.0
69 16.0 4.0
70 74.0 91.0
EOF

